benchmarks/bfuzz0/169854162860823123158331400320484517.smt2
(set-logic QF_FP)
(declare-const x0 (_ FloatingPoint 11 53))
(declare-const x1 (_ FloatingPoint 11 53))
(declare-const x2 (_ FloatingPoint 11 53))
(declare-const x3 (_ FloatingPoint 11 53))
(declare-const x4 (_ FloatingPoint 11 53))
(declare-const x5 (_ FloatingPoint 11 53))
(declare-const x6 (_ FloatingPoint 11 53))
(declare-const x7 (_ FloatingPoint 11 53))
(declare-const x8 (_ FloatingPoint 11 53))
(declare-const x9 (_ FloatingPoint 11 53))
(declare-const x10 (_ FloatingPoint 11 53))
(declare-const x11 (_ FloatingPoint 11 53))
(declare-const x12 (_ FloatingPoint 11 53))
(declare-const x13 (_ FloatingPoint 11 53))
(declare-const x14 (_ FloatingPoint 11 53))
(declare-const x15 (_ FloatingPoint 11 53))
(declare-const x16 (_ FloatingPoint 11 53))
(declare-const x17 (_ FloatingPoint 11 53))
(declare-const x18 (_ FloatingPoint 11 53))
(declare-const x19 (_ FloatingPoint 11 53))
(declare-const x20 (_ FloatingPoint 11 53))
(assert (fp.lt (fp.sub RNE x6 x7) (fp.sub RNE x0 x0)))
(assert (fp.eq (fp.neg x0) (fp.neg x15)))
(assert (fp.leq (fp.mul RNE x7 x5) (fp.mul RNE x19 x12)))
(assert (fp.geq (fp.mul RNE x18 x5) (fp.sub RNE x14 x3)))
(assert (fp.eq (fp.div RNE x2 x6) (fp.div RNE x9 x7)))
(assert (fp.gt (fp.add RNE x10 x13) (fp.div RNE x2 x15)))
(assert (fp.gt (fp.mul RNE x16 x5) (fp.div RNE x13 x0)))
(assert (fp.leq (fp.add RNE x13 x1) (fp.add RNE x4 x3)))
(check-sat)
