db/data/169854162860823123158331400320484517.z3.out
-------------------
2500.124091274
